************************************************************************
file with basedata            : md361_.bas
initial value random generator: 1559567798
************************************************************************
projects                      :  1
jobs (incl. supersource/sink ):  22
horizon                       :  171
RESOURCES
  - renewable                 :  2   R
  - nonrenewable              :  2   N
  - doubly constrained        :  0   D
************************************************************************
PROJECT INFORMATION:
pronr.  #jobs rel.date duedate tardcost  MPM-Time
    1     20      0       21        9       21
************************************************************************
PRECEDENCE RELATIONS:
jobnr.    #modes  #successors   successors
   1        1          3           2   3   4
   2        3          3           7  17  18
   3        3          2           5  14
   4        3          2           6  11
   5        3          3           8   9  15
   6        3          2          10  21
   7        3          3           9  11  14
   8        3          3          17  18  19
   9        3          2          16  21
  10        3          2          12  18
  11        3          3          15  16  20
  12        3          3          13  15  20
  13        3          1          14
  14        3          1          16
  15        3          1          19
  16        3          1          19
  17        3          1          21
  18        3          1          20
  19        3          1          22
  20        3          1          22
  21        3          1          22
  22        1          0        
************************************************************************
REQUESTS/DURATIONS:
jobnr. mode duration  R 1  R 2  N 1  N 2
------------------------------------------------------------------------
  1      1     0       0    0    0    0
  2      1     6       0    7    5    8
         2     7       0    6    4    4
         3     9       0    5    4    3
  3      1     1       0    6    9    4
         2     3       0    4    9    2
         3     7       7    0    8    2
  4      1     1       4    0   10    4
         2     2       1    0    7    4
         3     4       0    1    3    4
  5      1     2       0    4   10    4
         2     8       6    0    9    3
         3     9       5    0    9    1
  6      1     2       9    0    4    8
         2     3       4    0    4    7
         3     4       4    0    3    6
  7      1     2       1    0    7    9
         2     4       0    9    7    9
         3    10       1    0    7    8
  8      1     2       0    3    8    8
         2     4       0    2    5    7
         3     5       0    2    3    6
  9      1     3       0    9    8    5
         2     3      10    0    7    6
         3    10       9    0    6    2
 10      1     3       0    7    3    6
         2     3       7    0    2    6
         3     9       6    0    1    5
 11      1     5       6    0    4    8
         2     7       0    4    4    4
         3    10       4    0    4    2
 12      1     4       7    0    1    8
         2     4       0    5    1    7
         3    10       7    0    1    6
 13      1     6       0    6    9    2
         2     8       0    4    6    2
         3    10       4    0    4    1
 14      1     2       8    0    6    7
         2     8       0    7    4    7
         3    10       0    5    3    6
 15      1     2       9    0    4    6
         2    10       0    6    4    1
         3    10       0    7    3    1
 16      1     1       4    0    6    5
         2     6       0    4    4    4
         3     9       0    4    3    2
 17      1     1       0    6    6    6
         2     4       0    6    4    6
         3     9       3    0    2    4
 18      1     2       1    0   10    6
         2     8       1    0    7    4
         3    10       0    8    5    3
 19      1     2       0    6    8    4
         2     6       4    0    8    3
         3     6       0    5    8    4
 20      1     2       0    3    8    9
         2     8       4    0    5    9
         3    10       3    0    4    9
 21      1     2       0    6    9    7
         2     4       0    6    8    7
         3    10       0    6    7    7
 22      1     0       0    0    0    0
************************************************************************
RESOURCEAVAILABILITIES:
  R 1  R 2  N 1  N 2
    9   11  112  103
************************************************************************
MAXIMAL LAGS:
from  to  type  delay
    1   12   ES      0
    1    2   ES      0
    2   12   ES      0
    1    3   ES      0
    3   12   ES      0
    1    4   ES      0
    4   12   ES      0
    1    5   ES      0
    5   12   ES      0
    1    6   ES      0
    6   12   ES      0
    1    7   ES      0
    7   12   ES      0
    1    8   ES      0
    8   12   ES      0
    1    9   ES      0
    9   12   ES      0
    1   10   ES      0
   10   12   ES      0
    1   11   ES      0
   11   12   ES      0
    1   12   ES      0
    2    7   SS      3
    2    7   SE     -8
    2    7   ES     -6
    2    7   EE      9
    2   17   SS     -6
    2   17   SE    -10
    2   17   ES    -11
    2   17   EE     -4
    2   18   SS      9
    2   18   SE     -4
    2   18   ES      4
    2   18   EE     -9
    3    5   SS      3
    3    5   SE      9
    3    5   ES      2
    3    5   EE      8
    3   14   SS     -5
    3   14   SE      8
    3   14   ES      1
    3   14   EE     -1
    4    6   SS     -2
    4    6   SE     11
    4    6   ES      1
    4    6   EE    -10
    4   11   SS      7
    4   11   SE     -8
    4   11   ES     -8
    4   11   EE    -10
    5    8   SS     12
    5    8   SE      4
    5    8   ES      5
    5    8   EE     -8
    5    9   SS     -8
    5    9   SE    -12
    5    9   ES      1
    5    9   EE     -6
    5   15   SS     12
    5   15   SE    -10
    5   15   ES      4
    5   15   EE     11
    6   10   SS      0
    6   10   SE     -3
    6   10   ES     -9
    6   10   EE      3
    6   21   SS      0
    6   21   SE    -10
    6   21   ES      8
    6   21   EE      8
    7    9   SS      8
    7    9   SE     10
    7    9   ES     -5
    7    9   EE    -12
    7   11   SS     -8
    7   11   SE     -6
    7   11   ES      1
    7   11   EE     -4
    7   14   SS     12
    7   14   SE     -9
    7   14   ES     10
    7   14   EE      8
    8   17   SS      1
    8   17   SE      7
    8   17   ES     -5
    8   17   EE      1
    8   18   SS      4
    8   18   SE     -6
    8   18   ES     -2
    8   18   EE      8
    8   19   SS      7
    8   19   SE      6
    8   19   ES    -10
    8   19   EE      1
    9   16   SS      2
    9   16   SE      1
    9   16   ES     -4
    9   16   EE    -12
    9   21   SS     -5
    9   21   SE     -8
    9   21   ES     -5
    9   21   EE      6
   10   18   SS      9
   10   18   SE    -10
   10   18   ES     10
   10   18   EE      6
   11   15   SS     11
   11   15   SE     -5
   11   15   ES      9
   11   15   EE     -7
   11   16   SS     -2
   11   16   SE     -8
   11   16   ES      5
   11   16   EE     -8
   11   20   SS      8
   11   20   SE      0
   11   20   ES      2
   11   20   EE     -9
   12   13   SS     -7
   12   13   SE      0
   12   13   ES      7
   12   13   EE     -5
   12   15   SS      2
   12   15   SE      6
   12   15   ES     -4
   12   15   EE      7
   12   20   SS      7
   12   20   SE      6
   12   20   ES     -2
   12   20   EE     -7
   13   14   SS     -7
   13   14   SE     -2
   13   14   ES     -7
   13   14   EE      7
   14   16   SS      1
   14   16   SE     12
   14   16   ES     -4
   14   16   EE     -4
   15   19   SS     -3
   15   19   SE      9
   15   19   ES      4
   15   19   EE     -4
   16   19   SS     12
   16   19   SE     -5
   16   19   ES     11
   16   19   EE      8
   17   21   SS      1
   17   21   SE     12
   17   21   ES     10
   17   21   EE     11
   18   20   SS      5
   18   20   SE      1
   18   20   ES      4
   18   20   EE     -9
   19   22   SS     -9
   19   22   SE    -10
   19   22   ES     -3
   19   22   EE     -5
   20   22   SS     -5
   20   22   SE    -11
   20   22   ES      1
   20   22   EE     -4
   21   22   SS    -12
   21   22   SE      7
   21   22   ES     10
   21   22   EE      4
************************************************************************
